p cnf 235 832
c p weight 24 -1 0
c p weight -24 1 0
c p weight 26 6.12323399573676603586882014729198302312846062338790031898128063403419218957424163818359375E-17 0
c p weight -26 1 0
c p weight 27 1 0
c p weight -27 1 0
c p weight 28 -1 0
c p weight -28 1 0
c p weight 30 -1 0
c p weight -30 1 0
c p weight 31 -1 0
c p weight -31 1 0
c p weight 33 -1 0
c p weight -33 1 0
c p weight 35 6.12323399573676603586882014729198302312846062338790031898128063403419218957424163818359375E-17 0
c p weight -35 1 0
c p weight 36 1 0
c p weight -36 1 0
c p weight 37 -1 0
c p weight -37 1 0
c p weight 39 -1 0
c p weight -39 1 0
c p weight 40 -1 0
c p weight -40 1 0
c p weight 42 -1 0
c p weight -42 1 0
c p weight 44 6.12323399573676603586882014729198302312846062338790031898128063403419218957424163818359375E-17 0
c p weight -44 1 0
c p weight 45 1 0
c p weight -45 1 0
c p weight 46 -1 0
c p weight -46 1 0
c p weight 48 -1 0
c p weight -48 1 0
c p weight 50 -1 0
c p weight -50 1 0
c p weight 52 6.12323399573676603586882014729198302312846062338790031898128063403419218957424163818359375E-17 0
c p weight -52 1 0
c p weight 53 1 0
c p weight -53 1 0
c p weight 54 -1 0
c p weight -54 1 0
c p weight 56 -1 0
c p weight -56 1 0
c p weight 57 -1 0
c p weight -57 1 0
c p weight 59 -1 0
c p weight -59 1 0
c p weight 61 6.12323399573676603586882014729198302312846062338790031898128063403419218957424163818359375E-17 0
c p weight -61 1 0
c p weight 62 1 0
c p weight -62 1 0
c p weight 63 -1 0
c p weight -63 1 0
c p weight 65 -1 0
c p weight -65 1 0
c p weight 67 -1 0
c p weight -67 1 0
c p weight 69 6.12323399573676603586882014729198302312846062338790031898128063403419218957424163818359375E-17 0
c p weight -69 1 0
c p weight 70 1 0
c p weight -70 1 0
c p weight 71 -1 0
c p weight -71 1 0
c p weight 73 -1 0
c p weight -73 1 0
c p weight 74 -1 0
c p weight -74 1 0
c p weight 76 -1 0
c p weight -76 1 0
c p weight 78 6.12323399573676603586882014729198302312846062338790031898128063403419218957424163818359375E-17 0
c p weight -78 1 0
c p weight 79 1 0
c p weight -79 1 0
c p weight 80 -1 0
c p weight -80 1 0
c p weight 82 -1 0
c p weight -82 1 0
c p weight 83 -1 0
c p weight -83 1 0
c p weight 85 -1 0
c p weight -85 1 0
c p weight 87 6.12323399573676603586882014729198302312846062338790031898128063403419218957424163818359375E-17 0
c p weight -87 1 0
c p weight 88 1 0
c p weight -88 1 0
c p weight 89 -1 0
c p weight -89 1 0
c p weight 91 -1 0
c p weight -91 1 0
c p weight 93 -1 0
c p weight -93 1 0
c p weight 95 6.12323399573676603586882014729198302312846062338790031898128063403419218957424163818359375E-17 0
c p weight -95 1 0
c p weight 96 1 0
c p weight -96 1 0
c p weight 97 -1 0
c p weight -97 1 0
c p weight 99 -1 0
c p weight -99 1 0
c p weight 100 -1 0
c p weight -100 1 0
c p weight 102 -1 0
c p weight -102 1 0
c p weight 104 6.12323399573676603586882014729198302312846062338790031898128063403419218957424163818359375E-17 0
c p weight -104 1 0
c p weight 105 1 0
c p weight -105 1 0
c p weight 106 -1 0
c p weight -106 1 0
c p weight 108 -1 0
c p weight -108 1 0
c p weight 109 -1 0
c p weight -109 1 0
c p weight 110 -1 0
c p weight -110 1 0
c p weight 112 -1 0
c p weight -112 1 0
c p weight 114 6.12323399573676603586882014729198302312846062338790031898128063403419218957424163818359375E-17 0
c p weight -114 1 0
c p weight 115 1 0
c p weight -115 1 0
c p weight 116 -1 0
c p weight -116 1 0
c p weight 118 -1 0
c p weight -118 1 0
c p weight 121 -1 0
c p weight -121 1 0
c p weight 122 -1 0
c p weight -122 1 0
c p weight 124 -1 0
c p weight -124 1 0
c p weight 126 6.12323399573676603586882014729198302312846062338790031898128063403419218957424163818359375E-17 0
c p weight -126 1 0
c p weight 127 1 0
c p weight -127 1 0
c p weight 128 -1 0
c p weight -128 1 0
c p weight 130 -1 0
c p weight -130 1 0
c p weight 133 -1 0
c p weight -133 1 0
c p weight 134 -1 0
c p weight -134 1 0
c p weight 136 -1 0
c p weight -136 1 0
c p weight 138 6.12323399573676603586882014729198302312846062338790031898128063403419218957424163818359375E-17 0
c p weight -138 1 0
c p weight 139 1 0
c p weight -139 1 0
c p weight 140 -1 0
c p weight -140 1 0
c p weight 142 -1 0
c p weight -142 1 0
c p weight 145 -1 0
c p weight -145 1 0
c p weight 147 -1 0
c p weight -147 1 0
c p weight 149 6.12323399573676603586882014729198302312846062338790031898128063403419218957424163818359375E-17 0
c p weight -149 1 0
c p weight 150 1 0
c p weight -150 1 0
c p weight 151 -1 0
c p weight -151 1 0
c p weight 153 -1 0
c p weight -153 1 0
c p weight 156 -1 0
c p weight -156 1 0
c p weight 157 -1 0
c p weight -157 1 0
c p weight 159 -1 0
c p weight -159 1 0
c p weight 161 6.12323399573676603586882014729198302312846062338790031898128063403419218957424163818359375E-17 0
c p weight -161 1 0
c p weight 162 1 0
c p weight -162 1 0
c p weight 163 -1 0
c p weight -163 1 0
c p weight 165 -1 0
c p weight -165 1 0
c p weight 168 -1 0
c p weight -168 1 0
c p weight 170 -1 0
c p weight -170 1 0
c p weight 172 6.12323399573676603586882014729198302312846062338790031898128063403419218957424163818359375E-17 0
c p weight -172 1 0
c p weight 173 1 0
c p weight -173 1 0
c p weight 174 -1 0
c p weight -174 1 0
c p weight 176 -1 0
c p weight -176 1 0
c p weight 179 -1 0
c p weight -179 1 0
c p weight 180 -1 0
c p weight -180 1 0
c p weight 182 -1 0
c p weight -182 1 0
c p weight 184 6.12323399573676603586882014729198302312846062338790031898128063403419218957424163818359375E-17 0
c p weight -184 1 0
c p weight 185 1 0
c p weight -185 1 0
c p weight 186 -1 0
c p weight -186 1 0
c p weight 188 -1 0
c p weight -188 1 0
c p weight 191 -1 0
c p weight -191 1 0
c p weight 192 -1 0
c p weight -192 1 0
c p weight 194 -1 0
c p weight -194 1 0
c p weight 196 6.12323399573676603586882014729198302312846062338790031898128063403419218957424163818359375E-17 0
c p weight -196 1 0
c p weight 197 1 0
c p weight -197 1 0
c p weight 198 -1 0
c p weight -198 1 0
c p weight 200 -1 0
c p weight -200 1 0
c p weight 203 -1 0
c p weight -203 1 0
c p weight 205 -1 0
c p weight -205 1 0
c p weight 207 6.12323399573676603586882014729198302312846062338790031898128063403419218957424163818359375E-17 0
c p weight -207 1 0
c p weight 208 1 0
c p weight -208 1 0
c p weight 209 -1 0
c p weight -209 1 0
c p weight 211 -1 0
c p weight -211 1 0
c p weight 214 -1 0
c p weight -214 1 0
c p weight 215 -1 0
c p weight -215 1 0
c p weight 217 -1 0
c p weight -217 1 0
c p weight 219 6.12323399573676603586882014729198302312846062338790031898128063403419218957424163818359375E-17 0
c p weight -219 1 0
c p weight 220 1 0
c p weight -220 1 0
c p weight 221 -1 0
c p weight -221 1 0
c p weight 223 -1 0
c p weight -223 1 0
c p weight 226 -1 0
c p weight -226 1 0
c p weight 227 -1 0
c p weight -227 1 0
c p weight 229 -1 0
c p weight -229 1 0
c p weight 231 6.12323399573676603586882014729198302312846062338790031898128063403419218957424163818359375E-17 0
c p weight -231 1 0
c p weight 232 1 0
c p weight -232 1 0
c p weight 233 -1 0
c p weight -233 1 0
c p weight 235 -1 0
c p weight -235 1 0
-21 0
-19 0
-17 0
-15 0
-13 0
-11 0
-9 0
-7 0
-5 0
-3 0
-1 0
23 1 -2 0
23 -1 2 0
-23 1 2 0
-23 -1 -2 0
-24 1 0
-24 2 0
24 -1 -2 0
25 -1 23 0
-25 1 23 0
-26 23 0
25 -26 -1 0
-25 -26 1 0
25 26 1 -23 0
-25 26 -1 -23 0
-27 23 0
25 -27 1 0
-25 -27 -1 0
25 27 -1 -23 0
-25 27 1 -23 0
-28 25 0
-28 23 0
-28 -1 0
28 -25 1 -23 0
29 25 -23 0
29 -25 23 0
-29 25 23 0
-29 -25 -23 0
-30 25 0
-30 23 0
30 -25 -23 0
31 -29 0
-31 29 0
32 3 -4 0
32 -3 4 0
-32 3 4 0
-32 -3 -4 0
-33 3 0
-33 4 0
33 -3 -4 0
34 -3 32 0
-34 3 32 0
-35 32 0
34 -35 -3 0
-34 -35 3 0
34 35 3 -32 0
-34 35 -3 -32 0
-36 32 0
34 -36 3 0
-34 -36 -3 0
34 36 -3 -32 0
-34 36 3 -32 0
-37 34 0
-37 32 0
-37 -3 0
37 -34 3 -32 0
38 34 -32 0
38 -34 32 0
-38 34 32 0
-38 -34 -32 0
-39 34 0
-39 32 0
39 -34 -32 0
40 -38 0
-40 38 0
41 5 -6 0
41 -5 6 0
-41 5 6 0
-41 -5 -6 0
-42 5 0
-42 6 0
42 -5 -6 0
43 -5 41 0
-43 5 41 0
-44 41 0
43 -44 -5 0
-43 -44 5 0
43 44 5 -41 0
-43 44 -5 -41 0
-45 41 0
43 -45 5 0
-43 -45 -5 0
43 45 -5 -41 0
-43 45 5 -41 0
-46 43 0
-46 41 0
-46 -5 0
46 -43 5 -41 0
47 43 -41 0
47 -43 41 0
-47 43 41 0
-47 -43 -41 0
-48 43 0
-48 41 0
48 -43 -41 0
49 7 -8 0
49 -7 8 0
-49 7 8 0
-49 -7 -8 0
-50 7 0
-50 8 0
50 -7 -8 0
51 -7 49 0
-51 7 49 0
-52 49 0
51 -52 -7 0
-51 -52 7 0
51 52 7 -49 0
-51 52 -7 -49 0
-53 49 0
51 -53 7 0
-51 -53 -7 0
51 53 -7 -49 0
-51 53 7 -49 0
-54 51 0
-54 49 0
-54 -7 0
54 -51 7 -49 0
55 51 -49 0
55 -51 49 0
-55 51 49 0
-55 -51 -49 0
-56 51 0
-56 49 0
56 -51 -49 0
57 -55 0
-57 55 0
58 9 -10 0
58 -9 10 0
-58 9 10 0
-58 -9 -10 0
-59 9 0
-59 10 0
59 -9 -10 0
60 -9 58 0
-60 9 58 0
-61 58 0
60 -61 -9 0
-60 -61 9 0
60 61 9 -58 0
-60 61 -9 -58 0
-62 58 0
60 -62 9 0
-60 -62 -9 0
60 62 -9 -58 0
-60 62 9 -58 0
-63 60 0
-63 58 0
-63 -9 0
63 -60 9 -58 0
64 60 -58 0
64 -60 58 0
-64 60 58 0
-64 -60 -58 0
-65 60 0
-65 58 0
65 -60 -58 0
66 11 -12 0
66 -11 12 0
-66 11 12 0
-66 -11 -12 0
-67 11 0
-67 12 0
67 -11 -12 0
68 -11 66 0
-68 11 66 0
-69 66 0
68 -69 -11 0
-68 -69 11 0
68 69 11 -66 0
-68 69 -11 -66 0
-70 66 0
68 -70 11 0
-68 -70 -11 0
68 70 -11 -66 0
-68 70 11 -66 0
-71 68 0
-71 66 0
-71 -11 0
71 -68 11 -66 0
72 68 -66 0
72 -68 66 0
-72 68 66 0
-72 -68 -66 0
-73 68 0
-73 66 0
73 -68 -66 0
74 -72 0
-74 72 0
75 13 -14 0
75 -13 14 0
-75 13 14 0
-75 -13 -14 0
-76 13 0
-76 14 0
76 -13 -14 0
77 -13 75 0
-77 13 75 0
-78 75 0
77 -78 -13 0
-77 -78 13 0
77 78 13 -75 0
-77 78 -13 -75 0
-79 75 0
77 -79 13 0
-77 -79 -13 0
77 79 -13 -75 0
-77 79 13 -75 0
-80 77 0
-80 75 0
-80 -13 0
80 -77 13 -75 0
81 77 -75 0
81 -77 75 0
-81 77 75 0
-81 -77 -75 0
-82 77 0
-82 75 0
82 -77 -75 0
83 -81 0
-83 81 0
84 15 -16 0
84 -15 16 0
-84 15 16 0
-84 -15 -16 0
-85 15 0
-85 16 0
85 -15 -16 0
86 -15 84 0
-86 15 84 0
-87 84 0
86 -87 -15 0
-86 -87 15 0
86 87 15 -84 0
-86 87 -15 -84 0
-88 84 0
86 -88 15 0
-86 -88 -15 0
86 88 -15 -84 0
-86 88 15 -84 0
-89 86 0
-89 84 0
-89 -15 0
89 -86 15 -84 0
90 86 -84 0
90 -86 84 0
-90 86 84 0
-90 -86 -84 0
-91 86 0
-91 84 0
91 -86 -84 0
92 17 -18 0
92 -17 18 0
-92 17 18 0
-92 -17 -18 0
-93 17 0
-93 18 0
93 -17 -18 0
94 -17 92 0
-94 17 92 0
-95 92 0
94 -95 -17 0
-94 -95 17 0
94 95 17 -92 0
-94 95 -17 -92 0
-96 92 0
94 -96 17 0
-94 -96 -17 0
94 96 -17 -92 0
-94 96 17 -92 0
-97 94 0
-97 92 0
-97 -17 0
97 -94 17 -92 0
98 94 -92 0
98 -94 92 0
-98 94 92 0
-98 -94 -92 0
-99 94 0
-99 92 0
99 -94 -92 0
100 -98 0
-100 98 0
101 19 -20 0
101 -19 20 0
-101 19 20 0
-101 -19 -20 0
-102 19 0
-102 20 0
102 -19 -20 0
103 -19 101 0
-103 19 101 0
-104 101 0
103 -104 -19 0
-103 -104 19 0
103 104 19 -101 0
-103 104 -19 -101 0
-105 101 0
103 -105 19 0
-103 -105 -19 0
103 105 -19 -101 0
-103 105 19 -101 0
-106 103 0
-106 101 0
-106 -19 0
106 -103 19 -101 0
107 103 -101 0
107 -103 101 0
-107 103 101 0
-107 -103 -101 0
-108 103 0
-108 101 0
108 -103 -101 0
109 -107 0
-109 107 0
110 -22 0
-110 22 0
111 21 -22 0
111 -21 22 0
-111 21 22 0
-111 -21 -22 0
-112 21 0
-112 22 0
112 -21 -22 0
113 -21 111 0
-113 21 111 0
-114 111 0
113 -114 -21 0
-113 -114 21 0
113 114 21 -111 0
-113 114 -21 -111 0
-115 111 0
113 -115 21 0
-113 -115 -21 0
113 115 -21 -111 0
-113 115 21 -111 0
-116 113 0
-116 111 0
-116 -21 0
116 -113 21 -111 0
117 113 -111 0
117 -113 111 0
-117 113 111 0
-117 -113 -111 0
-118 113 0
-118 111 0
118 -113 -111 0
119 25 -113 0
119 -25 113 0
-119 25 113 0
-119 -25 -113 0
120 29 -117 0
120 -29 117 0
-120 29 117 0
-120 -29 -117 0
-121 25 0
-121 117 0
-121 113 -29 0
-121 -113 29 0
121 -25 113 29 -117 0
121 -25 -113 -29 -117 0
122 -120 0
-122 120 0
123 25 -120 0
123 -25 120 0
-123 25 120 0
-123 -25 -120 0
-124 25 0
-124 120 0
124 -25 -120 0
125 -25 123 0
-125 25 123 0
-126 123 0
125 -126 -25 0
-125 -126 25 0
125 126 25 -123 0
-125 126 -25 -123 0
-127 123 0
125 -127 25 0
-125 -127 -25 0
125 127 -25 -123 0
-125 127 25 -123 0
-128 125 0
-128 123 0
-128 -25 0
128 -125 25 -123 0
129 125 -123 0
129 -125 123 0
-129 125 123 0
-129 -125 -123 0
-130 125 0
-130 123 0
130 -125 -123 0
131 34 -119 0
131 -34 119 0
-131 34 119 0
-131 -34 -119 0
132 38 -117 0
132 -38 117 0
-132 38 117 0
-132 -38 -117 0
-133 34 0
-133 117 0
-133 119 -38 0
-133 -119 38 0
133 -34 119 38 -117 0
133 -34 -119 -38 -117 0
134 -132 0
-134 132 0
135 34 -132 0
135 -34 132 0
-135 34 132 0
-135 -34 -132 0
-136 34 0
-136 132 0
136 -34 -132 0
137 -34 135 0
-137 34 135 0
-138 135 0
137 -138 -34 0
-137 -138 34 0
137 138 34 -135 0
-137 138 -34 -135 0
-139 135 0
137 -139 34 0
-137 -139 -34 0
137 139 -34 -135 0
-137 139 34 -135 0
-140 137 0
-140 135 0
-140 -34 0
140 -137 34 -135 0
141 137 -135 0
141 -137 135 0
-141 137 135 0
-141 -137 -135 0
-142 137 0
-142 135 0
142 -137 -135 0
143 43 -131 0
143 -43 131 0
-143 43 131 0
-143 -43 -131 0
144 47 -117 0
144 -47 117 0
-144 47 117 0
-144 -47 -117 0
-145 43 0
-145 117 0
-145 131 -47 0
-145 -131 47 0
145 -43 131 47 -117 0
145 -43 -131 -47 -117 0
146 43 -144 0
146 -43 144 0
-146 43 144 0
-146 -43 -144 0
-147 43 0
-147 144 0
147 -43 -144 0
148 -43 146 0
-148 43 146 0
-149 146 0
148 -149 -43 0
-148 -149 43 0
148 149 43 -146 0
-148 149 -43 -146 0
-150 146 0
148 -150 43 0
-148 -150 -43 0
148 150 -43 -146 0
-148 150 43 -146 0
-151 148 0
-151 146 0
-151 -43 0
151 -148 43 -146 0
152 148 -146 0
152 -148 146 0
-152 148 146 0
-152 -148 -146 0
-153 148 0
-153 146 0
153 -148 -146 0
154 51 -143 0
154 -51 143 0
-154 51 143 0
-154 -51 -143 0
155 55 -117 0
155 -55 117 0
-155 55 117 0
-155 -55 -117 0
-156 51 0
-156 117 0
-156 143 -55 0
-156 -143 55 0
156 -51 143 55 -117 0
156 -51 -143 -55 -117 0
157 -155 0
-157 155 0
158 51 -155 0
158 -51 155 0
-158 51 155 0
-158 -51 -155 0
-159 51 0
-159 155 0
159 -51 -155 0
160 -51 158 0
-160 51 158 0
-161 158 0
160 -161 -51 0
-160 -161 51 0
160 161 51 -158 0
-160 161 -51 -158 0
-162 158 0
160 -162 51 0
-160 -162 -51 0
160 162 -51 -158 0
-160 162 51 -158 0
-163 160 0
-163 158 0
-163 -51 0
163 -160 51 -158 0
164 160 -158 0
164 -160 158 0
-164 160 158 0
-164 -160 -158 0
-165 160 0
-165 158 0
165 -160 -158 0
166 60 -154 0
166 -60 154 0
-166 60 154 0
-166 -60 -154 0
167 64 -117 0
167 -64 117 0
-167 64 117 0
-167 -64 -117 0
-168 60 0
-168 117 0
-168 154 -64 0
-168 -154 64 0
168 -60 154 64 -117 0
168 -60 -154 -64 -117 0
169 60 -167 0
169 -60 167 0
-169 60 167 0
-169 -60 -167 0
-170 60 0
-170 167 0
170 -60 -167 0
171 -60 169 0
-171 60 169 0
-172 169 0
171 -172 -60 0
-171 -172 60 0
171 172 60 -169 0
-171 172 -60 -169 0
-173 169 0
171 -173 60 0
-171 -173 -60 0
171 173 -60 -169 0
-171 173 60 -169 0
-174 171 0
-174 169 0
-174 -60 0
174 -171 60 -169 0
175 171 -169 0
175 -171 169 0
-175 171 169 0
-175 -171 -169 0
-176 171 0
-176 169 0
176 -171 -169 0
177 68 -166 0
177 -68 166 0
-177 68 166 0
-177 -68 -166 0
178 72 -117 0
178 -72 117 0
-178 72 117 0
-178 -72 -117 0
-179 68 0
-179 117 0
-179 166 -72 0
-179 -166 72 0
179 -68 166 72 -117 0
179 -68 -166 -72 -117 0
180 -178 0
-180 178 0
181 68 -178 0
181 -68 178 0
-181 68 178 0
-181 -68 -178 0
-182 68 0
-182 178 0
182 -68 -178 0
183 -68 181 0
-183 68 181 0
-184 181 0
183 -184 -68 0
-183 -184 68 0
183 184 68 -181 0
-183 184 -68 -181 0
-185 181 0
183 -185 68 0
-183 -185 -68 0
183 185 -68 -181 0
-183 185 68 -181 0
-186 183 0
-186 181 0
-186 -68 0
186 -183 68 -181 0
187 183 -181 0
187 -183 181 0
-187 183 181 0
-187 -183 -181 0
-188 183 0
-188 181 0
188 -183 -181 0
189 77 -177 0
189 -77 177 0
-189 77 177 0
-189 -77 -177 0
190 81 -117 0
190 -81 117 0
-190 81 117 0
-190 -81 -117 0
-191 77 0
-191 117 0
-191 177 -81 0
-191 -177 81 0
191 -77 177 81 -117 0
191 -77 -177 -81 -117 0
192 -190 0
-192 190 0
193 77 -190 0
193 -77 190 0
-193 77 190 0
-193 -77 -190 0
-194 77 0
-194 190 0
194 -77 -190 0
195 -77 193 0
-195 77 193 0
-196 193 0
195 -196 -77 0
-195 -196 77 0
195 196 77 -193 0
-195 196 -77 -193 0
-197 193 0
195 -197 77 0
-195 -197 -77 0
195 197 -77 -193 0
-195 197 77 -193 0
-198 195 0
-198 193 0
-198 -77 0
198 -195 77 -193 0
199 195 -193 0
199 -195 193 0
-199 195 193 0
-199 -195 -193 0
-200 195 0
-200 193 0
200 -195 -193 0
201 86 -189 0
201 -86 189 0
-201 86 189 0
-201 -86 -189 0
202 90 -117 0
202 -90 117 0
-202 90 117 0
-202 -90 -117 0
-203 86 0
-203 117 0
-203 189 -90 0
-203 -189 90 0
203 -86 189 90 -117 0
203 -86 -189 -90 -117 0
204 86 -202 0
204 -86 202 0
-204 86 202 0
-204 -86 -202 0
-205 86 0
-205 202 0
205 -86 -202 0
206 -86 204 0
-206 86 204 0
-207 204 0
206 -207 -86 0
-206 -207 86 0
206 207 86 -204 0
-206 207 -86 -204 0
-208 204 0
206 -208 86 0
-206 -208 -86 0
206 208 -86 -204 0
-206 208 86 -204 0
-209 206 0
-209 204 0
-209 -86 0
209 -206 86 -204 0
210 206 -204 0
210 -206 204 0
-210 206 204 0
-210 -206 -204 0
-211 206 0
-211 204 0
211 -206 -204 0
212 94 -201 0
212 -94 201 0
-212 94 201 0
-212 -94 -201 0
213 98 -117 0
213 -98 117 0
-213 98 117 0
-213 -98 -117 0
-214 94 0
-214 117 0
-214 201 -98 0
-214 -201 98 0
214 -94 201 98 -117 0
214 -94 -201 -98 -117 0
215 -213 0
-215 213 0
216 94 -213 0
216 -94 213 0
-216 94 213 0
-216 -94 -213 0
-217 94 0
-217 213 0
217 -94 -213 0
218 -94 216 0
-218 94 216 0
-219 216 0
218 -219 -94 0
-218 -219 94 0
218 219 94 -216 0
-218 219 -94 -216 0
-220 216 0
218 -220 94 0
-218 -220 -94 0
218 220 -94 -216 0
-218 220 94 -216 0
-221 218 0
-221 216 0
-221 -94 0
221 -218 94 -216 0
222 218 -216 0
222 -218 216 0
-222 218 216 0
-222 -218 -216 0
-223 218 0
-223 216 0
223 -218 -216 0
224 103 -212 0
224 -103 212 0
-224 103 212 0
-224 -103 -212 0
225 107 -117 0
225 -107 117 0
-225 107 117 0
-225 -107 -117 0
-226 103 0
-226 117 0
-226 212 -107 0
-226 -212 107 0
226 -103 212 107 -117 0
226 -103 -212 -107 -117 0
227 -225 0
-227 225 0
228 103 -225 0
228 -103 225 0
-228 103 225 0
-228 -103 -225 0
-229 103 0
-229 225 0
229 -103 -225 0
230 -103 228 0
-230 103 228 0
-231 228 0
230 -231 -103 0
-230 -231 103 0
230 231 103 -228 0
-230 231 -103 -228 0
-232 228 0
230 -232 103 0
-230 -232 -103 0
230 232 -103 -228 0
-230 232 103 -228 0
-233 230 0
-233 228 0
-233 -103 0
233 -230 103 -228 0
234 230 -228 0
234 -230 228 0
-234 230 228 0
-234 -230 -228 0
-235 230 0
-235 228 0
235 -230 -228 0
-125 0
-137 0
-141 0
-148 0
-152 0
-160 0
-164 0
-171 0
-175 0
-183 0
-187 0
-195 0
-199 0
-206 0
-210 0
-218 0
-222 0
-230 0
-234 0
-224 0
-117 0
